100 500 200 500 10 100
74 273
33 327
43 231
37 222
61 327
27 251
44 409
14 247
92 344
48 350
71 416
29 451
89 339
89 327
17 478
59 418
41 460
26 265
83 327
80 297
37 385
95 308
39 254
40 331
65 254
47 500
34 216
12 431
18 357
79 482
41 227
22 283
73 393
62 324
99 385
15 371
38 468
60 262
61 283
14 420
31 220
67 256
17 215
47 341
39 494
21 405
53 471
59 355
79 285
34 230
15 349
29 388
92 329
27 288
85 240
84 499
36 325
78 245
36 491
77 411
95 458
89 402
38 251
26 439
76 485
64 205
42 318
41 399
78 291
92 309
96 393
32 340
41 311
83 255
78 220
49 284
63 479
73 253
92 492
62 265
92 409
65 257
62 361
73 424
33 290
55 231
55 288
13 449
40 204
70 449
61 368
43 453
99 417
15 275
94 447
37 332
99 359
71 331
13 493
16 420
